c preprocessed version of RandomBarabasiAlbert_100_2, 41 vertices, 125 edges
p td 41 125
1 0
27 0
31 0
4 0
25 0
2 1
7 1
2 3
13 2
23 2
4 3
11 3
23 3
37 3
4 5
4 6
14 4
21 4
20 4
23 4
36 4
25 4
5 6
18 5
21 5
13 5
7 6
15 6
20 6
7 8
7 27
21 7
36 7
29 7
9 8
22 8
13 8
10 9
25 9
10 11
10 13
10 14
33 10
16 10
34 10
37 10
11 12
11 21
28 11
33 11
25 11
12 13
26 12
29 12
34 12
13 14
13 35
15 14
16 15
17 16
16 24
30 16
17 18
17 30
17 32
17 34
17 25
18 19
20 19
23 19
20 21
26 20
21 22
35 21
23 22
23 24
36 23
25 24
25 26
25 28
25 29
25 30
25 31
25 35
34 25
26 27
30 31
32 31
33 32
34 33
38 40
38 39
38 37
38 0
38 7
38 28
38 29
39 40
39 0
39 2
39 4
39 10
39 11
39 20
39 16
39 26
39 37
40 0
40 6
40 7
40 8
40 10
40 13
40 21
40 23
40 36
40 14
40 27
40 28
40 35
40 29
40 16
40 34
40 25
40 37
